5410308286461852069503,2,1,2,06,7,1,2,09,2,1,2,012,5,1,2,015,11,1,2,01,2,1,2,06,5,1,2,02,14,1,2,014,4,1,2,08,12,1,2,04,1,1,2,04,6,1,2,04,5,1,2,03,2,1,2,06,8,1,2,012,4,1,2,014,3,1,2,06,13,1,2,010,7,1,2,015,1,1,2,01,13,1,2,04,6,1,2,012,11,1,2,02,4,1,2,015,12,1,2,011,13,1,2,06,12,1,2,06,14,1,2,03,3,1,2,013,6,1,2,05,1,1,2,02,6,1,2,09,3,1,2,012,2,1,2,05,11,1,2,01,15,1,2,011,4,1,2,01,4,1,2,03,9,1,2,05,1,1,2,014,6,1,2,06,1,1,2,02,6,1,2,08,2,1,2,03,3,1,2,010,15,1,2,07,12,1,2,09,3,1,2,07,7,1,2,05,5,1,2,0